NAME: small15
TYPE: TSP
COMMENT: Small 15-node test instance for Held-Karp algorithm
DIMENSION: 15
EDGE_WEIGHT_TYPE: EUC_2D
NODE_COORD_SECTION
1 10.0 10.0
2 20.0 10.0
3 30.0 10.0
4 40.0 10.0
5 50.0 10.0
6 10.0 20.0
7 20.0 20.0
8 30.0 20.0
9 40.0 20.0
10 50.0 20.0
11 10.0 30.0
12 20.0 30.0
13 30.0 30.0
14 40.0 30.0
15 50.0 30.0
EOF 